.53 .76 .78                             
   1.00000000000000     
    14.4874763000000009    0.0000000000000000    0.0000000000000000
     0.0000000000000000   16.1975842000000014    0.0000000000000000
     0.2615334390000000    0.0000000000000000   20.5692959000000002
   Rb   Sb   I 
    23    16    72
Direct
  0.9694983754444024  0.0102540405181770  0.7223649905609548
  0.0306979706442974  0.4885562275413236  0.2777256703700388
  0.5299677149930844  0.2635588593452596  0.7774211273655993
  0.4691963745546346  0.2383368089158822  0.2222368991116568
  0.3122683145324459  0.0121166011415426  0.0584082289630601
  0.6889742760708586  0.4913867537329040  0.9370496436936762
  0.1881668777669248  0.2622360440008507  0.4404015164104607
  0.8095820961572073  0.2379708258780866  0.5628307952109637
  0.3557277157205476  0.4866983548426944  0.6082034687351765
  0.6450477775193164  0.0144774301712687  0.3958113478505965
  0.1458413915526080  0.2350551393327649  0.8929401604479423
  0.8544777197464342  0.2645892934248053  0.1052073311348281
  0.9698446038077080  0.5128854449731364  0.7216195493171611
  0.0307557203821958  0.9882350612178286  0.2775697797980996
  0.4691644555731216  0.7384820730669119  0.2222583582619038
  0.3106296280157679  0.5121761535177285  0.0591824057296151
  0.6872026097439772  0.9848279385093122  0.9358038419530104
  0.1876155685666632  0.7619125103349873  0.4406156809147959
  0.8102998952796980  0.7384353979572538  0.5633595888072875
  0.3569672142160201  0.9824057802934902  0.6085096041803908
  0.6458053310816609  0.5143206746368705  0.3950351350263972
  0.1456744500743028  0.7358243797700794  0.8922763214126732
  0.8542318007669536  0.7643736972176853  0.1037258769330478
  0.3358771152200219  0.0043280798674772  0.3425169543222637
  0.6620935373177517  0.4973510979204150  0.6593426024971194
  0.1642440681982151  0.2543562639271286  0.1574110146673036
  0.8358555950697450  0.2455988461336815  0.8418054208093153
  0.3342364655970300  0.4981223852021088  0.8415564661075479
  0.6677473416328823  0.0037035782610388  0.1580385861809148
  0.1684759857193967  0.2454712313360616  0.6589419482923304
  0.8321861996551050  0.2535967821026190  0.3417113996990295
  0.3359436967850158  0.5044724415378639  0.3426615836135696
  0.6624259234845624  0.9921743356746902  0.6584787428094003
  0.1638457846065364  0.7542302539918353  0.1573277105940818
  0.8311582758453255  0.7455110121889916  0.8415618310598063
  0.3339154652363518  0.9930343759976026  0.8410852928207149
  0.6678524231635237  0.5037991095218928  0.1581626354522569
  0.1696479118333798  0.7486172420395789  0.6603772648546240
  0.8321254285091157  0.7536515905586043  0.3417669751434289
  0.0036515874662726  0.2895409140865510  0.7519827404174180
  0.9961354198371808  0.2110883703743198  0.2474832980104438
  0.4969552017604926  0.0414707494648425  0.7483300769245034
  0.5040009016485243  0.4611814542717028  0.2525789885002325
  0.3278858103947044  0.2837761317678371  0.0786828430818716
  0.6725105297182310  0.2149252147505223  0.9206626932966202
  0.1719387786249698  0.0338332687901683  0.4209906942369486
  0.8260616169737034  0.4657142798858729  0.5793180167712322
  0.3302879220027393  0.2112865384799676  0.5801269901128592
  0.6694278168007060  0.2859078031684703  0.4201137446905179
  0.1697094848182843  0.4615560425654834  0.9185907323389202
  0.8295220540921306  0.0359294944210973  0.0789945210207890
  0.0863762639086048  0.1502925545913314  0.0580409722824839
  0.9134886885332563  0.3496990040736776  0.9424418050923506
  0.4134430137214551  0.4005836126569449  0.4422766565687084
  0.5867865956911515  0.0999675898572221  0.5587895553941138
  0.0482734376281400  0.1475650563071653  0.5769615415413654
  0.9500597122725978  0.3538902586158343  0.4226242660158306
  0.4517268458935533  0.3966777842046909  0.9223207380734237
  0.5495673931143230  0.1041363028220630  0.0775395995647798
  0.4272652801372843  0.1510782144394867  0.3885740750254030
  0.5723671478035826  0.3496777512582909  0.6117673008825619
  0.0727703273227576  0.4011267827203326  0.1113768854647645
  0.9277845290136923  0.0994644450107813  0.8882841284347336
  0.3750323645141904  0.1442299450451472  0.9124116098864974
  0.6236643963203932  0.3560552287053653  0.0856872344948130
  0.1257620779342830  0.3944098527668842  0.5862335139813908
  0.8761999502321984  0.1057756580620861  0.4140552450943886
  0.7570154949248931  0.1515094080685699  0.7224735130372153
  0.2426262690478964  0.3480453249317605  0.2798126815935973
  0.7428086011123085  0.4013140404388906  0.7789601010729115
  0.2575296938370784  0.0978095597800035  0.2198739369123643
  0.7039030980765801  0.1587920905211107  0.2449687168392458
  0.2950020109859537  0.3413049467353986  0.7545344177609579
  0.7960411366127786  0.4089996442642487  0.2549841376953736
  0.2037802840289729  0.0906351476346288  0.7443069517194161
  0.0038864748410603  0.7870182934136452  0.7514924840955857
  0.9956868469070344  0.7112357678803249  0.2471712769382250
  0.4976469055710382  0.5405014061670101  0.7491172280906611
  0.5040707295320246  0.9611930050158008  0.2526615925130997
  0.3276305986354302  0.7834962399648546  0.0789199128738929
  0.6708546489425018  0.7181929623865244  0.9199949594635513
  0.1719571056759506  0.5337554776380955  0.4210648798495882
  0.8269021660159694  0.9660054414188934  0.5788352582457961
  0.3299657304240853  0.7140441596281875  0.5797252208157389
  0.6699356256009921  0.7859935877274253  0.4204570237056373
  0.1687066948197611  0.9627996803300718  0.9182632030695075
  0.8305853380672303  0.5358848058203165  0.0799594437251656
  0.0863007189201213  0.6503689312454028  0.0577071106259339
  0.9120391319472674  0.8502537660194207  0.9406844999848829
  0.4135445490281526  0.9005304848119025  0.4420062164186547
  0.5862287499455618  0.6002695889840837  0.5582505257009274
  0.0498694765331891  0.6485828352697922  0.5781661599108219
  0.9504089452058153  0.8539984237346587  0.4224858720711211
  0.4475482772234258  0.8979359128873483  0.9258752370326278
  0.5500362720118801  0.6040020050508730  0.0770606449882578
  0.4274180331073865  0.6510518815955422  0.3888717500868282
  0.5731625287689894  0.8482435955434013  0.6127760806265456
  0.0725387102742729  0.9007921761236233  0.1109588011750091
  0.9257527326549990  0.5998039462811136  0.8883531656642703
  0.3736965791836866  0.6426759161471765  0.9164884585120276
  0.6232169447092204  0.8558951830483608  0.0856046721195227
  0.1256832189575547  0.8959013792641457  0.5867641690164476
  0.8764541208149197  0.6060027702362092  0.4144776913498163
  0.7608148387431868  0.6485760073787858  0.7210413177813209
  0.2424415367560755  0.8478637615936648  0.2797722696371139
  0.7493938211377795  0.9030079611844499  0.7768426798325265
  0.2574822530429302  0.5979664287474407  0.2202013200540733
  0.7038137880090716  0.6589898547295689  0.2449816911190297
  0.3001683779503281  0.8390493352743960  0.7548650064717464
  0.7959854407448219  0.9088153699402142  0.2548688453869588
  0.2048489133656304  0.5920136586560858  0.7450422835029613
 
  0.00000000E+00  0.00000000E+00  0.00000000E+00
  0.00000000E+00  0.00000000E+00  0.00000000E+00
  0.00000000E+00  0.00000000E+00  0.00000000E+00
  0.00000000E+00  0.00000000E+00  0.00000000E+00
  0.00000000E+00  0.00000000E+00  0.00000000E+00
  0.00000000E+00  0.00000000E+00  0.00000000E+00
  0.00000000E+00  0.00000000E+00  0.00000000E+00
  0.00000000E+00  0.00000000E+00  0.00000000E+00
  0.00000000E+00  0.00000000E+00  0.00000000E+00
  0.00000000E+00  0.00000000E+00  0.00000000E+00
  0.00000000E+00  0.00000000E+00  0.00000000E+00
  0.00000000E+00  0.00000000E+00  0.00000000E+00
  0.00000000E+00  0.00000000E+00  0.00000000E+00
  0.00000000E+00  0.00000000E+00  0.00000000E+00
  0.00000000E+00  0.00000000E+00  0.00000000E+00
  0.00000000E+00  0.00000000E+00  0.00000000E+00
  0.00000000E+00  0.00000000E+00  0.00000000E+00
  0.00000000E+00  0.00000000E+00  0.00000000E+00
  0.00000000E+00  0.00000000E+00  0.00000000E+00
  0.00000000E+00  0.00000000E+00  0.00000000E+00
  0.00000000E+00  0.00000000E+00  0.00000000E+00
  0.00000000E+00  0.00000000E+00  0.00000000E+00
  0.00000000E+00  0.00000000E+00  0.00000000E+00
  0.00000000E+00  0.00000000E+00  0.00000000E+00
  0.00000000E+00  0.00000000E+00  0.00000000E+00
  0.00000000E+00  0.00000000E+00  0.00000000E+00
  0.00000000E+00  0.00000000E+00  0.00000000E+00
  0.00000000E+00  0.00000000E+00  0.00000000E+00
  0.00000000E+00  0.00000000E+00  0.00000000E+00
  0.00000000E+00  0.00000000E+00  0.00000000E+00
  0.00000000E+00  0.00000000E+00  0.00000000E+00
  0.00000000E+00  0.00000000E+00  0.00000000E+00
  0.00000000E+00  0.00000000E+00  0.00000000E+00
  0.00000000E+00  0.00000000E+00  0.00000000E+00
  0.00000000E+00  0.00000000E+00  0.00000000E+00
  0.00000000E+00  0.00000000E+00  0.00000000E+00
  0.00000000E+00  0.00000000E+00  0.00000000E+00
  0.00000000E+00  0.00000000E+00  0.00000000E+00
  0.00000000E+00  0.00000000E+00  0.00000000E+00
  0.00000000E+00  0.00000000E+00  0.00000000E+00
  0.00000000E+00  0.00000000E+00  0.00000000E+00
  0.00000000E+00  0.00000000E+00  0.00000000E+00
  0.00000000E+00  0.00000000E+00  0.00000000E+00
  0.00000000E+00  0.00000000E+00  0.00000000E+00
  0.00000000E+00  0.00000000E+00  0.00000000E+00
  0.00000000E+00  0.00000000E+00  0.00000000E+00
  0.00000000E+00  0.00000000E+00  0.00000000E+00
  0.00000000E+00  0.00000000E+00  0.00000000E+00
  0.00000000E+00  0.00000000E+00  0.00000000E+00
  0.00000000E+00  0.00000000E+00  0.00000000E+00
  0.00000000E+00  0.00000000E+00  0.00000000E+00
  0.00000000E+00  0.00000000E+00  0.00000000E+00
  0.00000000E+00  0.00000000E+00  0.00000000E+00
  0.00000000E+00  0.00000000E+00  0.00000000E+00
  0.00000000E+00  0.00000000E+00  0.00000000E+00
  0.00000000E+00  0.00000000E+00  0.00000000E+00
  0.00000000E+00  0.00000000E+00  0.00000000E+00
  0.00000000E+00  0.00000000E+00  0.00000000E+00
  0.00000000E+00  0.00000000E+00  0.00000000E+00
  0.00000000E+00  0.00000000E+00  0.00000000E+00
  0.00000000E+00  0.00000000E+00  0.00000000E+00
  0.00000000E+00  0.00000000E+00  0.00000000E+00
  0.00000000E+00  0.00000000E+00  0.00000000E+00
  0.00000000E+00  0.00000000E+00  0.00000000E+00
  0.00000000E+00  0.00000000E+00  0.00000000E+00
  0.00000000E+00  0.00000000E+00  0.00000000E+00
  0.00000000E+00  0.00000000E+00  0.00000000E+00
  0.00000000E+00  0.00000000E+00  0.00000000E+00
  0.00000000E+00  0.00000000E+00  0.00000000E+00
  0.00000000E+00  0.00000000E+00  0.00000000E+00
  0.00000000E+00  0.00000000E+00  0.00000000E+00
  0.00000000E+00  0.00000000E+00  0.00000000E+00
  0.00000000E+00  0.00000000E+00  0.00000000E+00
  0.00000000E+00  0.00000000E+00  0.00000000E+00
  0.00000000E+00  0.00000000E+00  0.00000000E+00
  0.00000000E+00  0.00000000E+00  0.00000000E+00
  0.00000000E+00  0.00000000E+00  0.00000000E+00
  0.00000000E+00  0.00000000E+00  0.00000000E+00
  0.00000000E+00  0.00000000E+00  0.00000000E+00
  0.00000000E+00  0.00000000E+00  0.00000000E+00
  0.00000000E+00  0.00000000E+00  0.00000000E+00
  0.00000000E+00  0.00000000E+00  0.00000000E+00
  0.00000000E+00  0.00000000E+00  0.00000000E+00
  0.00000000E+00  0.00000000E+00  0.00000000E+00
  0.00000000E+00  0.00000000E+00  0.00000000E+00
  0.00000000E+00  0.00000000E+00  0.00000000E+00
  0.00000000E+00  0.00000000E+00  0.00000000E+00
  0.00000000E+00  0.00000000E+00  0.00000000E+00
  0.00000000E+00  0.00000000E+00  0.00000000E+00
  0.00000000E+00  0.00000000E+00  0.00000000E+00
  0.00000000E+00  0.00000000E+00  0.00000000E+00
  0.00000000E+00  0.00000000E+00  0.00000000E+00
  0.00000000E+00  0.00000000E+00  0.00000000E+00
  0.00000000E+00  0.00000000E+00  0.00000000E+00
  0.00000000E+00  0.00000000E+00  0.00000000E+00
  0.00000000E+00  0.00000000E+00  0.00000000E+00
  0.00000000E+00  0.00000000E+00  0.00000000E+00
  0.00000000E+00  0.00000000E+00  0.00000000E+00
  0.00000000E+00  0.00000000E+00  0.00000000E+00
  0.00000000E+00  0.00000000E+00  0.00000000E+00
  0.00000000E+00  0.00000000E+00  0.00000000E+00
  0.00000000E+00  0.00000000E+00  0.00000000E+00
  0.00000000E+00  0.00000000E+00  0.00000000E+00
  0.00000000E+00  0.00000000E+00  0.00000000E+00
  0.00000000E+00  0.00000000E+00  0.00000000E+00
  0.00000000E+00  0.00000000E+00  0.00000000E+00
  0.00000000E+00  0.00000000E+00  0.00000000E+00
  0.00000000E+00  0.00000000E+00  0.00000000E+00
  0.00000000E+00  0.00000000E+00  0.00000000E+00
  0.00000000E+00  0.00000000E+00  0.00000000E+00
  0.00000000E+00  0.00000000E+00  0.00000000E+00
