 .41 .40 .44                            
   1.00000000000000     
    14.4874763000000009    0.0000000000000000    0.0000000000000000
     0.0000000000000000   16.1975842000000014    0.0000000000000000
     0.2615334390000000    0.0000000000000000   20.5692959000000002
   Rb   Sb   I 
    24    16    71
Direct
  0.9701926454747252  0.0116841500748563  0.7223141646739606
  0.0366480269309548  0.4903453490106386  0.2823959003561569
  0.5305252049364313  0.2617988801048199  0.7781625586324878
  0.4687405129840840  0.2347041694509215  0.2210366740111382
  0.3060258853168492  0.0099185320617963  0.0602296748109410
  0.6888356849624842  0.4876466843381380  0.9397510969394389
  0.1728267036113351  0.2540271095769313  0.4375501445848471
  0.8080787009072097  0.2379845623876591  0.5596712553466148
  0.3516751663440800  0.4869972221086130  0.6104444115485563
  0.6442834494461067  0.0134944594538382  0.3935576295912568
  0.1453723716958919  0.2355743228906348  0.8929297994465557
  0.8564047278392195  0.2656780320343799  0.1070544281890875
  0.9689009834036355  0.5122439165790453  0.7217535632938947
  0.0308030340430818  0.9866134508108502  0.2732021024673585
  0.5304222153827425  0.7631085672843056  0.7778427545950422
  0.4694299974736396  0.7385158925640383  0.2257575962312259
  0.3065383341336130  0.5161697060193120  0.0632450230474859
  0.6887156167414972  0.9872212960408504  0.9398432823056027
  0.1895309150783646  0.7554984509215714  0.4376569937150592
  0.8118509576598143  0.7381751699380956  0.5598657961172719
  0.3552841149785095  0.9871569302745726  0.6050530430127523
  0.6560511893585002  0.5196503916992654  0.3912447648320097
  0.1448768903269766  0.7366288161541945  0.8936307815528650
  0.8573014857823082  0.7664571809826128  0.1062985109686707
  0.3345084582372095  0.0044610066234654  0.3416572590863964
  0.6628332523274736  0.4950763018648487  0.6575917203741710
  0.1636734025123374  0.2568489304449884  0.1584018229634054
  0.8359579356477624  0.2448083679710251  0.8423562516871002
  0.3320424997161737  0.4967324136341418  0.8425751662516134
  0.6672274774523572  0.0035873594434932  0.1576567640520068
  0.1671299177483618  0.2474270454074343  0.6578505577705940
  0.8299852175090692  0.2549398461554730  0.3409934698753077
  0.3426794259009469  0.4988812606028006  0.3439874455170369
  0.6644048655466790  0.9947941243438621  0.6573414695068038
  0.1659001745338102  0.7534551980307853  0.1560836482760166
  0.8355530045592658  0.7446965266622456  0.8421626717956485
  0.3320958557148757  0.9973442758225488  0.8412022154432037
  0.6685479770479930  0.5029479895517071  0.1582739322626452
  0.1679930401455678  0.7470256710689824  0.6582381645897257
  0.8345317241338108  0.7543171436825062  0.3408907592693637
  0.0039291803590089  0.2900206705026633  0.7521911086095727
  0.9966179558497998  0.2108978109757729  0.2502925975888317
  0.4968204437102060  0.0398143294480349  0.7473543895919832
  0.5102929160020437  0.4541388413103462  0.2558213261441153
  0.3274593221371802  0.2876740658168373  0.0803810063893593
  0.6714422161848361  0.2147655792758627  0.9201829926806653
  0.1684201392633966  0.0303734419021922  0.4190558003563112
  0.8270771655960942  0.4651676744142677  0.5794295774864722
  0.3275310757500449  0.2167045301130628  0.5754562454758485
  0.6659619603520568  0.2902792081137520  0.4190944625847166
  0.1687589574587705  0.4629112374286919  0.9202581222132409
  0.8306050430525147  0.0372644556988604  0.0803852068688400
  0.0845415356763795  0.1545909454899643  0.0577409374225439
  0.9135010117872113  0.3496405378760059  0.9416725383904279
  0.5863404948288036  0.0992027364292838  0.5577121491572896
  0.0462299750822126  0.1466120779624944  0.5785737069412349
  0.9473580689416536  0.3561167922728359  0.4228025242751627
  0.4512012910739713  0.3965165376827287  0.9228142600897371
  0.5469096986724935  0.1020974651757527  0.0767501411578024
  0.4262782217000023  0.1520640137547815  0.3887290343842764
  0.5685797937101924  0.3488858997517568  0.6119216010982456
  0.0719974120063682  0.4050193482266025  0.1151321559139546
  0.9282177641522367  0.0981402096708877  0.8881423881880011
  0.3756847438385478  0.1457199698407621  0.9138789651544954
  0.6252407294798417  0.3542862653382102  0.0859712296844961
  0.1216138076497373  0.3959583984709312  0.5868406907392796
  0.8735455713606299  0.1067416766016791  0.4141678323716889
  0.7578185033459164  0.1515782926108287  0.7198200942105615
  0.2450198743088450  0.3451388020984680  0.2819468523367590
  0.7421789883651186  0.4014891693036020  0.7795329187341622
  0.2562507415999633  0.0982568089782703  0.2195498138363874
  0.7031142611016534  0.1599784356160470  0.2445204550955111
  0.2970318762231514  0.3411332013228403  0.7542329740515541
  0.8018604714685225  0.4108045968497791  0.2540744063273266
  0.2048641200664463  0.0911441068340153  0.7431651498112615
  0.0032186540625005  0.7896041044289888  0.7518000122422563
  0.9973831519480925  0.7114374267828154  0.2471472422746359
  0.4967091703586917  0.5409702626020305  0.7488704694057091
  0.5026824425764360  0.9616460789844083  0.2519734138268745
  0.3313594544899416  0.7828569812590800  0.0795280888147261
  0.6709163954600967  0.7151715101813494  0.9202339153175885
  0.1826297951104507  0.5235587085525282  0.4274683587779080
  0.8292366614458970  0.9651209394731950  0.5795355598974083
  0.3314187637954618  0.7131019858129903  0.5804465671888224
  0.6702768216091570  0.7848816294798056  0.4193871830806728
  0.1674592559849089  0.9647524702821002  0.9178794416604177
  0.8309350853688429  0.5382214400951995  0.0792917301053322
  0.0862194544904895  0.6500320395553985  0.0571049731519153
  0.9136222870947535  0.8492606658252129  0.9412401765246585
  0.4132512180836088  0.8997181950826132  0.4405924803060444
  0.5839978141132534  0.5970248178323629  0.5568006846143376
  0.0491050198600931  0.6463830054556396  0.5776250107179166
  0.9530683062918044  0.8550976156239471  0.4209102809467993
  0.4504318098246003  0.8967138586505357  0.9221544139362834
  0.5462663594769879  0.6029282520647996  0.0801095024067351
  0.4336807077424112  0.6445802370271849  0.3919317633649442
  0.5721472687477345  0.8481231398965789  0.6114216618141839
  0.0712398349770567  0.9039777485447047  0.1075362842893455
  0.9278324716577586  0.5979932610399032  0.8877799923399508
  0.3752804853219303  0.6452779094466550  0.9143065981730842
  0.6245866257210935  0.8541380913234065  0.0868005303573796
  0.1248523117083806  0.8947854499708043  0.5853370938046396
  0.8831684674228768  0.6066538608343848  0.4136950679250617
  0.7567059836606163  0.6517916166227238  0.7191863491291031
  0.2425115400273157  0.8491126675758238  0.2791729342918927
  0.7424964706041237  0.9019026145682361  0.7797254668454840
  0.2561237601975108  0.6049148084374423  0.2236372995125961
  0.7047130132920287  0.6592388761150687  0.2444436242909447
  0.2967188058107126  0.8414525733657356  0.7547863949699547
  0.7954768115304773  0.9096685079082647  0.2555754113255588
  0.2029210012498339  0.5912252842339285  0.7454734799499363
 
  0.00000000E+00  0.00000000E+00  0.00000000E+00
  0.00000000E+00  0.00000000E+00  0.00000000E+00
  0.00000000E+00  0.00000000E+00  0.00000000E+00
  0.00000000E+00  0.00000000E+00  0.00000000E+00
  0.00000000E+00  0.00000000E+00  0.00000000E+00
  0.00000000E+00  0.00000000E+00  0.00000000E+00
  0.00000000E+00  0.00000000E+00  0.00000000E+00
  0.00000000E+00  0.00000000E+00  0.00000000E+00
  0.00000000E+00  0.00000000E+00  0.00000000E+00
  0.00000000E+00  0.00000000E+00  0.00000000E+00
  0.00000000E+00  0.00000000E+00  0.00000000E+00
  0.00000000E+00  0.00000000E+00  0.00000000E+00
  0.00000000E+00  0.00000000E+00  0.00000000E+00
  0.00000000E+00  0.00000000E+00  0.00000000E+00
  0.00000000E+00  0.00000000E+00  0.00000000E+00
  0.00000000E+00  0.00000000E+00  0.00000000E+00
  0.00000000E+00  0.00000000E+00  0.00000000E+00
  0.00000000E+00  0.00000000E+00  0.00000000E+00
  0.00000000E+00  0.00000000E+00  0.00000000E+00
  0.00000000E+00  0.00000000E+00  0.00000000E+00
  0.00000000E+00  0.00000000E+00  0.00000000E+00
  0.00000000E+00  0.00000000E+00  0.00000000E+00
  0.00000000E+00  0.00000000E+00  0.00000000E+00
  0.00000000E+00  0.00000000E+00  0.00000000E+00
  0.00000000E+00  0.00000000E+00  0.00000000E+00
  0.00000000E+00  0.00000000E+00  0.00000000E+00
  0.00000000E+00  0.00000000E+00  0.00000000E+00
  0.00000000E+00  0.00000000E+00  0.00000000E+00
  0.00000000E+00  0.00000000E+00  0.00000000E+00
  0.00000000E+00  0.00000000E+00  0.00000000E+00
  0.00000000E+00  0.00000000E+00  0.00000000E+00
  0.00000000E+00  0.00000000E+00  0.00000000E+00
  0.00000000E+00  0.00000000E+00  0.00000000E+00
  0.00000000E+00  0.00000000E+00  0.00000000E+00
  0.00000000E+00  0.00000000E+00  0.00000000E+00
  0.00000000E+00  0.00000000E+00  0.00000000E+00
  0.00000000E+00  0.00000000E+00  0.00000000E+00
  0.00000000E+00  0.00000000E+00  0.00000000E+00
  0.00000000E+00  0.00000000E+00  0.00000000E+00
  0.00000000E+00  0.00000000E+00  0.00000000E+00
  0.00000000E+00  0.00000000E+00  0.00000000E+00
  0.00000000E+00  0.00000000E+00  0.00000000E+00
  0.00000000E+00  0.00000000E+00  0.00000000E+00
  0.00000000E+00  0.00000000E+00  0.00000000E+00
  0.00000000E+00  0.00000000E+00  0.00000000E+00
  0.00000000E+00  0.00000000E+00  0.00000000E+00
  0.00000000E+00  0.00000000E+00  0.00000000E+00
  0.00000000E+00  0.00000000E+00  0.00000000E+00
  0.00000000E+00  0.00000000E+00  0.00000000E+00
  0.00000000E+00  0.00000000E+00  0.00000000E+00
  0.00000000E+00  0.00000000E+00  0.00000000E+00
  0.00000000E+00  0.00000000E+00  0.00000000E+00
  0.00000000E+00  0.00000000E+00  0.00000000E+00
  0.00000000E+00  0.00000000E+00  0.00000000E+00
  0.00000000E+00  0.00000000E+00  0.00000000E+00
  0.00000000E+00  0.00000000E+00  0.00000000E+00
  0.00000000E+00  0.00000000E+00  0.00000000E+00
  0.00000000E+00  0.00000000E+00  0.00000000E+00
  0.00000000E+00  0.00000000E+00  0.00000000E+00
  0.00000000E+00  0.00000000E+00  0.00000000E+00
  0.00000000E+00  0.00000000E+00  0.00000000E+00
  0.00000000E+00  0.00000000E+00  0.00000000E+00
  0.00000000E+00  0.00000000E+00  0.00000000E+00
  0.00000000E+00  0.00000000E+00  0.00000000E+00
  0.00000000E+00  0.00000000E+00  0.00000000E+00
  0.00000000E+00  0.00000000E+00  0.00000000E+00
  0.00000000E+00  0.00000000E+00  0.00000000E+00
  0.00000000E+00  0.00000000E+00  0.00000000E+00
  0.00000000E+00  0.00000000E+00  0.00000000E+00
  0.00000000E+00  0.00000000E+00  0.00000000E+00
  0.00000000E+00  0.00000000E+00  0.00000000E+00
  0.00000000E+00  0.00000000E+00  0.00000000E+00
  0.00000000E+00  0.00000000E+00  0.00000000E+00
  0.00000000E+00  0.00000000E+00  0.00000000E+00
  0.00000000E+00  0.00000000E+00  0.00000000E+00
  0.00000000E+00  0.00000000E+00  0.00000000E+00
  0.00000000E+00  0.00000000E+00  0.00000000E+00
  0.00000000E+00  0.00000000E+00  0.00000000E+00
  0.00000000E+00  0.00000000E+00  0.00000000E+00
  0.00000000E+00  0.00000000E+00  0.00000000E+00
  0.00000000E+00  0.00000000E+00  0.00000000E+00
  0.00000000E+00  0.00000000E+00  0.00000000E+00
  0.00000000E+00  0.00000000E+00  0.00000000E+00
  0.00000000E+00  0.00000000E+00  0.00000000E+00
  0.00000000E+00  0.00000000E+00  0.00000000E+00
  0.00000000E+00  0.00000000E+00  0.00000000E+00
  0.00000000E+00  0.00000000E+00  0.00000000E+00
  0.00000000E+00  0.00000000E+00  0.00000000E+00
  0.00000000E+00  0.00000000E+00  0.00000000E+00
  0.00000000E+00  0.00000000E+00  0.00000000E+00
  0.00000000E+00  0.00000000E+00  0.00000000E+00
  0.00000000E+00  0.00000000E+00  0.00000000E+00
  0.00000000E+00  0.00000000E+00  0.00000000E+00
  0.00000000E+00  0.00000000E+00  0.00000000E+00
  0.00000000E+00  0.00000000E+00  0.00000000E+00
  0.00000000E+00  0.00000000E+00  0.00000000E+00
  0.00000000E+00  0.00000000E+00  0.00000000E+00
  0.00000000E+00  0.00000000E+00  0.00000000E+00
  0.00000000E+00  0.00000000E+00  0.00000000E+00
  0.00000000E+00  0.00000000E+00  0.00000000E+00
  0.00000000E+00  0.00000000E+00  0.00000000E+00
  0.00000000E+00  0.00000000E+00  0.00000000E+00
  0.00000000E+00  0.00000000E+00  0.00000000E+00
  0.00000000E+00  0.00000000E+00  0.00000000E+00
  0.00000000E+00  0.00000000E+00  0.00000000E+00
  0.00000000E+00  0.00000000E+00  0.00000000E+00
  0.00000000E+00  0.00000000E+00  0.00000000E+00
  0.00000000E+00  0.00000000E+00  0.00000000E+00
  0.00000000E+00  0.00000000E+00  0.00000000E+00
  0.00000000E+00  0.00000000E+00  0.00000000E+00
  0.00000000E+00  0.00000000E+00  0.00000000E+00
